20	5
0	4	2	4	1	3
1	2	12	13
2	3	7	15	13
3	2	10	15
4	2	13	18
5	2	11	21
6	1	14
7	2	8	17
8	2	16	6
9	3	11	21	20
10	2	18	13
11	0
12	3	15	16	6
13	2	9	17
14	1	11
15	2	5	8
16	2	9	14
17	1	5
18	1	12
19	1	21
20	1	21
21	0
0	0	0	0	0	0	0
1	8	2	5	0	5	5
2	6	1	1	5	0	3
3	1	5	2	4	4	5
4	6	4	3	0	2	1
5	10	1	1	0	3	4
6	9	4	5	1	1	1
7	9	5	3	0	5	3
8	2	0	0	2	3	2
9	10	1	2	1	5	2
10	3	3	5	3	0	0
11	3	4	3	1	1	4
12	9	2	3	2	5	0
13	7	1	0	0	5	2
14	4	0	0	0	4	5
15	8	5	1	0	2	0
16	8	1	1	3	5	4
17	7	5	5	5	4	0
18	4	0	2	3	0	0
19	5	0	0	5	1	2
20	2	3	2	0	0	1
21	0	0	0	0	0	0
7	7	6	8	7
